NAME          ClpDefau
ROWS
 N  OBJROW
 L  R_92_0
 L  R_92_1
 L  R_92_2
 L  R_92_3
 L  R_92_4
 L  R_92_5
 L  R_92_6
 L  R_92_7
 L  R_92_8
 L  R_92_9
 L  R_92_10
 L  R_92_11
 L  R_92_12
 L  R_92_13
 L  R_92_14
 L  R_92_15
COLUMNS
    x_0       OBJROW     -1.           R_92_1    8.          
    x_0       R_92_2    1.             R_92_4    6.          
    x_0       R_92_6    9.             R_92_7    3.          
    x_0       R_92_8    1.             R_92_9    3.          
    x_0       R_92_10   9.             R_92_11   9.          
    x_0       R_92_12   3.             R_92_14   7.          
    x_0       R_92_15   6.          
    x_1       OBJROW     -2.           R_92_0    6.          
    x_1       R_92_1    8.             R_92_2    7.          
    x_1       R_92_3    8.             R_92_4    4.          
    x_1       R_92_5    8.             R_92_6    6.          
    x_1       R_92_7    8.             R_92_9    10.         
    x_1       R_92_10   9.             R_92_11   8.          
    x_1       R_92_12   6.          
    x_2       OBJROW     -2.           R_92_0    8.          
    x_2       R_92_1    9.             R_92_2    9.          
    x_2       R_92_3    10.            R_92_4    4.          
    x_2       R_92_5    6.             R_92_7    2.          
    x_2       R_92_8    6.             R_92_9    4.          
    x_2       R_92_11   10.            R_92_12   5.          
    x_2       R_92_13   2.             R_92_14   3.          
    x_3       OBJROW     -6.           R_92_0    4.          
    x_3       R_92_2    1.             R_92_3    6.          
    x_3       R_92_4    1.             R_92_5    2.          
    x_3       R_92_6    1.             R_92_7    3.          
    x_3       R_92_9    3.             R_92_10   1.          
    x_3       R_92_11   1.             R_92_12   4.          
    x_3       R_92_13   1.             R_92_14   10.         
    x_3       R_92_15   2.          
    x_4       OBJROW     -3.           R_92_0    8.          
    x_4       R_92_1    8.             R_92_2    10.         
    x_4       R_92_3    5.             R_92_4    10.         
    x_4       R_92_5    8.             R_92_7    6.          
    x_4       R_92_9    3.             R_92_10   7.          
    x_4       R_92_11   6.             R_92_12   6.          
    x_4       R_92_13   10.            R_92_15   9.          
    x_5       OBJROW     -5.           R_92_1    5.          
    x_5       R_92_2    3.             R_92_3    8.          
    x_5       R_92_4    9.             R_92_6    1.          
    x_5       R_92_8    8.             R_92_9    2.          
    x_5       R_92_10   10.            R_92_11   10.         
    x_5       R_92_12   5.             R_92_13   5.          
    x_5       R_92_14   1.             R_92_15   7.          
    x_6       OBJROW     -5.           R_92_0    2.          
    x_6       R_92_1    2.             R_92_2    2.          
    x_6       R_92_3    4.             R_92_4    1.          
    x_6       R_92_5    8.             R_92_6    9.          
    x_6       R_92_7    4.             R_92_8    4.          
    x_6       R_92_9    7.             R_92_10   1.          
    x_6       R_92_11   1.             R_92_14   2.          
    x_6       R_92_15   8.          
    x_7       OBJROW     -10.          R_92_0    9.          
    x_7       R_92_2    6.             R_92_3    6.          
    x_7       R_92_4    7.             R_92_5    5.          
    x_7       R_92_6    1.             R_92_8    8.          
    x_7       R_92_9    10.            R_92_10   1.          
    x_7       R_92_11   6.             R_92_12   2.          
    x_7       R_92_13   8.             R_92_14   10.         
    x_7       R_92_15   8.          
    x_8       OBJROW     -4.           R_92_0    6.          
    x_8       R_92_1    2.             R_92_2    2.          
    x_8       R_92_3    6.             R_92_4    4.          
    x_8       R_92_5    1.             R_92_6    8.          
    x_8       R_92_7    8.             R_92_8    8.          
    x_8       R_92_9    6.             R_92_10   9.          
    x_8       R_92_12   7.             R_92_15   4.          
    x_9       OBJROW     -10.          R_92_0    10.         
    x_9       R_92_1    7.             R_92_2    2.          
    x_9       R_92_3    10.            R_92_4    6.          
    x_9       R_92_5    9.             R_92_6    7.          
    x_9       R_92_8    1.             R_92_9    5.          
    x_9       R_92_10   6.             R_92_11   9.          
    x_9       R_92_12   3.             R_92_13   7.          
    x_9       R_92_14   9.             R_92_15   9.          
    x_10      OBJROW     -1.           R_92_0    3.          
    x_10      R_92_1    4.             R_92_2    6.          
    x_10      R_92_3    10.            R_92_4    8.          
    x_10      R_92_5    1.             R_92_7    3.          
    x_10      R_92_8    1.             R_92_9    7.          
    x_10      R_92_10   7.             R_92_11   8.          
    x_10      R_92_12   9.             R_92_13   2.          
    x_10      R_92_14   4.             R_92_15   4.          
    x_11      OBJROW     -10.          R_92_0    7.          
    x_11      R_92_2    1.             R_92_3    9.          
    x_11      R_92_4    8.             R_92_5    2.          
    x_11      R_92_6    4.             R_92_7    10.         
    x_11      R_92_8    4.             R_92_10   9.          
    x_11      R_92_11   4.             R_92_12   10.         
    x_11      R_92_13   8.             R_92_15   10.         
    x_12      OBJROW     -3.           R_92_0    8.          
    x_12      R_92_1    10.            R_92_2    4.          
    x_12      R_92_4    6.             R_92_5    8.          
    x_12      R_92_6    2.             R_92_7    8.          
    x_12      R_92_10   9.             R_92_11   2.          
    x_12      R_92_12   6.             R_92_13   7.          
    x_12      R_92_14   3.             R_92_15   8.          
    x_13      OBJROW     -7.           R_92_0    8.          
    x_13      R_92_1    3.             R_92_2    9.          
    x_13      R_92_3    1.             R_92_4    9.          
    x_13      R_92_6    4.             R_92_8    3.          
    x_13      R_92_9    9.             R_92_10   5.          
    x_13      R_92_11   6.             R_92_12   5.          
    x_13      R_92_13   7.             R_92_14   2.          
    x_13      R_92_15   4.          
    x_14      OBJROW     -7.           R_92_0    9.          
    x_14      R_92_2    9.             R_92_3    5.          
    x_14      R_92_4    8.             R_92_5    9.          
    x_14      R_92_6    2.             R_92_7    7.          
    x_14      R_92_9    6.             R_92_10   8.          
    x_14      R_92_11   8.             R_92_12   5.          
    x_14      R_92_13   3.             R_92_15   4.          
    x_15      OBJROW     -9.           R_92_1    2.          
    x_15      R_92_3    6.             R_92_4    3.          
    x_15      R_92_5    4.             R_92_6    9.          
    x_15      R_92_7    7.             R_92_9    5.          
    x_15      R_92_12   6.             R_92_13   5.          
    x_15      R_92_14   2.             R_92_15   7.          
RHS
    RHS       R_92_0    79.            R_92_1    69.         
    RHS       R_92_2    72.            R_92_3    75.         
    RHS       R_92_4    78.            R_92_5    79.         
    RHS       R_92_6    66.            R_92_7    69.         
    RHS       R_92_8    74.            R_92_9    76.         
    RHS       R_92_10   68.            R_92_11   64.         
    RHS       R_92_12   67.            R_92_13   75.         
    RHS       R_92_14   69.            R_92_15   75.         
BOUNDS
 UI BOUND     x_0       10.         
 UI BOUND     x_1       10.         
 UI BOUND     x_2       10.         
 UI BOUND     x_3       10.         
 UI BOUND     x_4       10.         
 UI BOUND     x_5       10.         
 UI BOUND     x_6       10.         
 UI BOUND     x_7       10.         
 UI BOUND     x_8       10.         
 UI BOUND     x_9       10.         
 UI BOUND     x_10      10.         
 UI BOUND     x_11      10.         
 UI BOUND     x_12      10.         
 UI BOUND     x_13      10.         
 UI BOUND     x_14      10.         
 UI BOUND     x_15      10.         
ENDATA
